Route #1: 113 39 120 57
Route #2: 68 47 22 40 118 25 109 117 85 62
Route #3: 101 77 107 4 94
Route #4: 86 111
Route #5: 82 49 56
Route #6: 51 105 89 88 115
Route #7: 102 90 52 44 123 14
Route #8: 96 38 60
Route #9: 3 31
Route #10: 15 116 66 23 24
Route #11: 33 53 69
Route #12: 76 21 91
Route #13: 92 87 114 11 19 9 13
Route #14: 106 43 81 42 74
Route #15: 18 112
Route #16: 84 121 32 8 10
Route #17: 64 7 5 75
Route #18: 17 78 28 59 70 6 34 2 124 50
Route #19: 108 27 1 46 63 79 36 55 30
Route #20: 54 45 119 29 80 58
Route #21: 35 103
Route #22: 98 71 104 65
Route #23: 26 93
Route #24: 61 83 122
Route #25: 97 16 99 110 73
Route #26: 37 12 100
Route #27: 48 72 67 41 20 95
Cost 50033.000000